(set-logic ALL)
(declare-var x (_ BitVec 32))
(declare-var y (_ BitVec 32))
(declare-var x! (_ BitVec 32))
(declare-var y! (_ BitVec 32))
(synth-fun inv-f((parameter0 (_ BitVec 32))(parameter1 (_ BitVec 32)))Bool) 
(constraint (=> (= x (_ bv4294967246 32))(inv-f x y )))
(constraint (=> (and (inv-f x y ) (or (and (bvslt x (_ bv0 32)) (and (= x! (bvadd x y)) (= y! (bvadd y (_ bv1 32))) ) ) (and (bvsge x (_ bv0 32)) (and (= x! x) (= y! y) ) ) ) )(inv-f x! y! )))
(constraint (=> (inv-f x y )(=> (not (bvslt x (_ bv0 32)))(bvsge y (_ bv0 32)))))
(check-synth)

